Cost: 1740
0-39-38-35-28-25-26-27-33-34-36-37-0
0-4-5-31-30-29-24-42-23-22-18-16-17-20-9-8-40-0
0-3-41-6-7-10-43-11-12-13-15-14-19-21-44-1-2-0
Cost: 1740
0-38-35-28-25-26-27-33-34-36-37-0
0-3-41-6-7-10-43-11-12-13-15-17-19-21-44-1-2-0
0-4-5-31-30-29-24-42-23-22-18-16-14-20-9-8-40-39-0
Cost: 1740
0-39-38-35-28-25-26-27-33-34-36-37-0
0-4-5-31-30-29-24-42-23-22-18-16-17-20-9-8-40-0
0-3-41-6-7-10-43-11-12-13-15-14-19-21-44-1-2-0
Cost: 1740
0-39-38-35-28-25-26-27-33-34-36-37-0
0-4-5-31-30-29-24-42-23-22-18-16-17-20-9-8-40-0
0-3-41-6-7-10-43-11-12-13-15-14-19-21-44-1-2-0
Cost: 1740
0-39-38-35-28-25-26-27-33-34-36-37-0
0-4-5-31-30-29-24-42-23-22-18-16-17-20-9-8-40-0
0-3-41-6-7-10-43-11-12-13-15-14-19-21-44-1-2-0
Cost: 1740
0-39-38-35-28-25-26-27-33-34-36-37-0
0-4-5-31-30-29-24-42-23-22-18-16-17-20-9-8-40-0
0-3-41-6-7-10-43-11-12-13-15-14-19-21-44-1-2-0
Cost: 1740
0-39-38-35-28-25-26-27-33-34-36-37-0
0-4-5-31-30-29-24-42-23-22-18-16-17-20-9-8-40-0
0-3-41-6-7-10-43-11-12-13-15-14-19-21-44-1-2-0
Cost: 1740
0-39-38-35-28-25-26-27-33-34-36-37-0
0-4-5-31-30-29-24-42-23-22-18-16-17-20-9-8-40-0
0-3-41-6-7-10-43-11-12-13-15-14-19-21-44-1-2-0
Cost: 1740
0-39-38-35-28-25-26-27-33-34-36-37-0
0-4-5-31-30-29-24-42-23-22-18-16-17-20-9-8-40-0
0-3-41-6-7-10-43-11-12-13-15-14-19-21-44-1-2-0
Cost: 1740
0-39-38-35-28-25-26-27-33-34-36-37-0
0-4-5-31-30-29-24-42-23-22-18-16-17-20-9-8-40-0
0-3-41-6-7-10-43-11-12-13-15-14-19-21-44-1-2-0
Cost: 1740
0-39-38-35-28-25-26-27-33-34-36-37-0
0-4-5-31-30-29-24-42-23-22-18-16-17-20-9-8-40-0
0-3-41-6-7-10-43-11-12-13-15-14-19-21-44-1-2-0
Cost: 1740
0-3-41-6-10-43-11-12-13-15-14-19-21-44-1-2-0
0-38-35-32-28-25-26-27-33-34-36-37-0
0-4-5-30-29-24-42-23-22-18-16-17-20-7-9-8-40-39-0
Cost: 1740
0-3-41-6-10-43-11-12-13-15-14-19-21-44-1-2-0
0-38-35-32-28-25-26-27-33-34-36-37-0
0-4-5-30-29-24-42-23-22-18-16-17-20-7-9-8-40-39-0
Cost: 1740
0-3-41-6-10-43-11-12-13-15-14-19-21-44-1-2-0
0-38-35-32-28-25-26-27-33-34-36-37-0
0-4-5-30-29-24-42-23-22-18-16-17-20-7-9-8-40-39-0
Cost: 1740
0-3-41-6-10-43-11-12-13-15-14-19-21-44-1-2-0
0-38-35-32-28-25-26-27-33-34-36-37-0
0-4-5-30-29-24-42-23-22-18-16-17-20-7-9-8-40-39-0
Cost: 1740
0-3-41-6-10-43-11-12-13-15-14-19-21-44-1-2-0
0-38-35-32-28-25-26-27-33-34-36-37-0
0-4-5-30-29-24-42-23-22-18-16-17-20-7-9-8-40-39-0
Cost: 1740
0-3-41-6-10-43-11-12-13-15-14-19-21-44-1-2-0
0-38-35-32-28-25-26-27-33-34-36-37-0
0-4-5-30-29-24-42-23-22-18-16-17-20-7-9-8-40-39-0
Cost: 1740
0-3-41-6-7-10-43-11-12-13-15-19-21-44-1-2-0
0-38-35-32-28-25-26-27-33-34-36-37-0
0-4-5-30-29-24-42-23-22-18-16-17-14-20-9-8-40-39-0
Cost: 1740
0-3-41-6-10-43-11-12-13-15-14-19-21-44-1-2-0
0-38-35-32-28-25-26-27-33-34-36-37-0
0-4-5-30-29-24-42-23-22-18-16-17-20-7-9-8-40-39-0
Cost: 1740
0-3-41-6-10-43-11-12-13-15-14-19-21-44-1-2-0
0-38-35-32-28-25-26-27-33-34-36-37-0
0-4-5-30-29-24-42-23-22-18-16-17-20-7-9-8-40-39-0
Cost: 1740
0-3-41-6-10-43-11-12-13-15-14-19-21-44-1-2-0
0-38-35-32-28-25-26-27-33-34-36-37-0
0-4-5-30-29-24-42-23-22-18-16-17-20-7-9-8-40-39-0
Cost: 1740
0-3-41-6-10-43-11-12-13-15-14-19-21-44-1-2-0
0-38-35-32-28-25-26-27-33-34-36-37-0
0-4-5-30-29-24-42-23-22-18-16-17-20-7-9-8-40-39-0
Cost: 1740
0-3-41-6-10-43-11-12-13-15-14-19-21-44-1-2-0
0-38-35-32-28-25-26-27-33-34-36-37-0
0-4-5-30-29-24-42-23-22-18-16-17-20-7-9-8-40-39-0
Cost: 1740
0-3-41-6-10-43-11-12-13-15-14-19-21-44-1-2-0
0-38-35-32-28-25-26-27-33-34-36-37-0
0-4-5-30-29-24-42-23-22-18-16-17-20-7-9-8-40-39-0
Cost: 1740
0-3-41-6-10-43-11-12-13-15-14-19-21-44-1-2-0
0-38-35-32-28-25-26-27-33-34-36-37-0
0-4-5-30-29-24-42-23-22-18-16-17-20-7-9-8-40-39-0
Cost: 1740
0-3-4-5-31-29-24-42-23-22-18-16-20-9-8-40-39-0
0-41-6-7-10-43-11-12-13-15-17-14-19-21-44-1-2-0
0-35-32-28-25-26-27-33-34-36-37-38-0
Cost: 1740
0-3-41-6-10-43-11-12-13-15-14-19-21-44-1-2-0
0-38-35-32-28-25-26-27-33-34-36-37-0
0-4-5-30-29-24-42-23-22-18-16-17-20-7-9-8-40-39-0
Cost: 1740
0-3-41-6-10-43-11-12-13-15-14-19-21-44-1-2-0
0-38-35-32-28-25-26-27-33-34-36-37-0
0-4-5-30-29-24-42-23-22-18-16-17-20-7-9-8-40-39-0
Cost: 1740
0-3-41-6-10-43-11-12-13-15-14-19-21-44-1-2-0
0-38-35-32-28-25-26-27-33-34-36-37-0
0-4-5-30-29-24-42-23-22-18-16-17-20-7-9-8-40-39-0
Cost: 1740
0-3-41-6-10-43-11-12-13-15-14-19-21-44-1-2-0
0-38-35-32-28-25-26-27-33-34-36-37-0
0-4-5-30-29-24-42-23-22-18-16-17-20-7-9-8-40-39-0
Cost: 1740
0-38-35-32-28-25-26-27-33-34-36-37-0
0-4-5-31-29-24-42-23-22-18-16-14-20-7-9-8-40-39-0
0-3-41-6-10-43-11-12-13-15-17-19-21-44-1-2-0
Cost: 1740
0-35-28-25-26-27-33-34-36-37-38-0
0-3-41-6-7-10-43-11-12-13-15-17-19-21-44-1-2-0
0-4-5-31-30-29-24-42-23-22-18-16-14-20-9-8-40-39-0
Cost: 1740
0-39-35-32-28-25-26-27-33-34-36-37-0
0-4-5-31-29-24-42-23-22-18-16-14-20-9-8-40-38-0
0-3-41-6-7-10-43-11-12-13-15-17-19-21-44-1-2-0
Cost: 1740
0-3-41-6-7-10-43-11-12-13-15-14-19-21-44-1-2-0
0-39-35-28-25-26-27-33-34-36-37-38-0
0-4-5-31-30-29-24-42-23-22-18-16-17-20-9-8-40-0
Cost: 1740
0-4-5-44-31-29-24-42-23-22-18-16-19-21-1-2-0
0-38-35-32-28-25-26-27-33-34-36-37-0
0-3-41-6-10-43-11-12-13-15-17-14-20-7-9-8-40-39-0
